83
Time limit set to 60 seconds
Running CP solver
/home/omastto1/General-Optimization-Solver/src/solvers/mmrcpsp.py:42(stream:108:6): Warning: Cumulative expression 'pulse': height is zero, expression is zero everywhere.
                                                                                               VarCumulAtom_149 = pulse(task_0_mode_0, 0)
/home/omastto1/General-Optimization-Solver/src/solvers/mmrcpsp.py:42(stream:108:1253): Warning: Cumulative expression 'pulse': height is zero, expression is zero everywhere.
                                                                                                  VarCumulAtom_198 = pulse(task_17_mode_0, 0)
/home/omastto1/General-Optimization-Solver/src/solvers/mmrcpsp.py:42(stream:109:6): Warning: Cumulative expression 'pulse': height is zero, expression is zero everywhere.
                                                                                               VarCumulAtom_202 = pulse(task_0_mode_0, 0)
/home/omastto1/General-Optimization-Solver/src/solvers/mmrcpsp.py:42(stream:109:1256): Warning: Cumulative expression 'pulse': height is zero, expression is zero everywhere.
                                                                                                  VarCumulAtom_251 = pulse(task_17_mode_0, 0)
 ! --------------------------------------------------- CP Optimizer 20.1.0.0 --
 ! Minimization problem - 69 variables, 51 constraints
 ! TimeLimit            = 60
 ! Workers              = 14
 ! LogVerbosity         = Terse
 ! Initial process time : 0.00s (0.00s extraction + 0.00s propagation)
 !  . Log search space  : 155.8 (before), 155.8 (after)
 !  . Memory usage      : 754.6 kB (before), 754.6 kB (after)
 ! Using parallel search with 14 workers.
 ! ----------------------------------------------------------------------------
 !          Best Branches  Non-fixed    W       Branch decision
                        0         69                 -
 + New bound is 20
 ! Using iterative diving.
 ! Using temporal relaxation.
 *            20        9  0.09s        1      (gap is 0.00%)
 ! ----------------------------------------------------------------------------
 ! Search completed, 1 solution found.
 ! Best objective         : 20 (optimal - effective tol. is 0)
 ! Best bound             : 20
 ! ----------------------------------------------------------------------------
 ! Number of branches     : 52896
 ! Number of fails        : 1469
 ! Total memory usage     : 9.0 MB (8.9 MB CP Optimizer + 0.1 MB Concert)
 ! Time spent in solve    : 0.13s (0.13s engine + 0.00s extraction)
 ! Search speed (br. / s) : 440800.0
 ! ----------------------------------------------------------------------------
task_0: (start=0, end=0, size=0, length=0)
Task 0 is scheduled in mode 0 from 0 to 0
task_1: (start=0, end=8, size=8, length=8)
Task 1 is scheduled in mode 0 from 0 to 8
task_2: (start=0, end=3, size=3, length=3)
Task 2 is scheduled in mode 0 from 0 to 3
task_3: (start=0, end=5, size=5, length=5)
Task 3 is scheduled in mode 0 from 0 to 5
task_4: (start=5, end=10, size=5, length=5)
Task 4 is scheduled in mode 2 from 5 to 10
task_5: (start=3, end=9, size=6, length=6)
Task 5 is scheduled in mode 1 from 3 to 9
task_6: (start=5, end=8, size=3, length=3)
Task 6 is scheduled in mode 0 from 5 to 8
task_7: (start=8, end=10, size=2, length=2)
Task 7 is scheduled in mode 0 from 8 to 10
task_8: (start=8, end=12, size=4, length=4)
Task 8 is scheduled in mode 2 from 8 to 12
task_9: (start=8, end=17, size=9, length=9)
Task 9 is scheduled in mode 2 from 8 to 17
task_10: (start=5, end=9, size=4, length=4)
Task 10 is scheduled in mode 1 from 5 to 9
task_11: (start=12, end=16, size=4, length=4)
Task 11 is scheduled in mode 1 from 12 to 16
task_12: (start=9, end=10, size=1, length=1)
Task 12 is scheduled in mode 0 from 9 to 10
task_13: (start=10, end=17, size=7, length=7)
Task 13 is scheduled in mode 0 from 10 to 17
task_14: (start=17, end=20, size=3, length=3)
Task 14 is scheduled in mode 1 from 17 to 20
task_15: (start=12, end=20, size=8, length=8)
Task 15 is scheduled in mode 2 from 12 to 20
task_16: (start=17, end=18, size=1, length=1)
Task 16 is scheduled in mode 1 from 17 to 18
task_17: (start=20, end=20, size=0, length=0)
Task 17 is scheduled in mode 0 from 20 to 20
Optimal solution found
Objective value: 20
Solution is optimal.
